397 485 549 604 668 724 863 915 967 975
61 345 267 125 159 396 577 651 486 693
469 634 669 555 724 706 772 863 1018 915
0 50 346 164 132 337 263 437 645 417
243 0 604 431 494 353 906 549 609 646
8 164 126 152 319 1012 61 967 232 347
125 232 0 29 247 346 353 281 429 486
224 401 133 263 350 485 651 775 856 562
555 246 29 706 401 610 874 597 973 780
337 549 223 426 634 895 431 680 397 844
